p wcnf 5000 500 1
1 1 0
1 2 0
1 3 0
1 4 0
1 5 0
1 6 0
1 7 0
1 8 0
1 9 0
1 10 0
1 11 0
1 12 0
1 13 0
1 14 0
1 15 0
1 1 1 1 1 1 1 1 1 1 1 1 1 1 1 0
1 1 1 1 1 1 1 1 1 1 1 1 1 1 1 0
1 1 1 1 1 1 2 2 2 2 2 2 2 2 2 0
1 2 2 2 2 2 2 2 2 2 2 2 2 2 2 0
1 2 2 2 2 2 2 2 2 2 2 2 2 2 2 0
1 2 2 2 2 2 2 2 2 2 2 3 3 3 3 0
1 3 3 3 3 3 3 3 3 3 3 3 3 3 3 0
1 3 3 3 3 3 3 3 3 3 3 3 3 3 3 0
1 3 3 3 3 3 3 3 3 3 3 3 3 3 3 0
1 3 3 3 3 3 3 3 4 4 4 4 4 4 4 0
1 4 4 4 4 4 4 4 4 4 4 4 4 4 4 0
1 4 4 4 4 4 4 4 4 4 4 4 4 4 4 0
1 4 4 4 4 4 4 5 5 5 5 5 5 5 5 0
1 5 5 5 5 5 5 5 5 5 5 5 5 5 5 0
1 5 5 5 5 5 5 5 5 5 5 5 5 5 5 0
1 5 5 5 5 6 6 6 6 6 6 6 6 6 6 0
1 6 6 6 6 6 6 6 6 6 6 6 6 6 6 0
1 6 6 6 6 6 6 6 6 6 6 6 6 6 6 0
1 6 6 6 6 7 7 7 7 7 7 7 7 7 7 0
1 7 7 7 7 7 7 7 7 7 7 7 7 7 7 0
1 7 7 7 7 7 7 7 7 7 7 7 7 7 7 0
1 7 7 7 7 7 7 7 8 8 8 8 8 8 8 0
1 8 8 8 8 8 8 8 8 8 8 8 8 8 8 0
1 8 8 8 8 8 8 8 8 8 8 8 8 8 8 0
1 8 9 9 9 9 9 9 9 9 9 9 9 9 9 0
1 9 9 9 9 9 9 9 9 9 9 9 9 9 9 0
1 9 9 9 9 9 9 9 9 9 9 9 9 9 9 0
1 9 9 9 9 9 9 9 9 9 9 9 9 10 10 0
1 10 10 10 10 10 10 10 10 10 10 10 10 10 10 0
1 10 10 10 10 10 10 10 10 10 10 10 10 10 10 0
1 10 10 10 10 10 10 10 10 10 10 10 10 10 10 0
1 10 10 10 11 11 11 11 11 11 11 11 11 11 11 0
1 11 11 11 11 11 11 11 11 11 11 11 11 11 11 0
1 11 11 11 11 11 11 11 11 11 11 11 11 11 11 0
1 11 11 11 11 11 11 11 11 12 12 12 12 12 12 0
1 12 12 12 12 12 12 12 12 12 12 12 12 12 12 0
1 12 12 12 12 12 12 12 12 12 12 12 12 12 12 0
1 12 12 12 13 13 13 13 13 13 13 13 13 13 13 0
1 13 13 13 13 13 13 13 13 13 13 13 13 13 13 0
1 13 13 13 13 13 13 13 13 13 13 13 13 13 13 0
1 13 13 13 13 13 13 13 13 14 14 14 14 14 14 0
1 14 14 14 14 14 14 14 14 14 14 14 14 14 14 0
1 14 14 14 14 14 14 14 14 14 14 14 14 14 14 0
1 14 14 14 14 14 15 15 15 15 15 15 15 15 15 0
1 15 15 15 15 15 15 15 15 15 15 15 15 15 15 0
1 15 15 15 15 15 15 15 15 15 15 15 15 15 15 0
1 15 15 15 15 15 15 15 15 15 15 15 15 15 15 0
1 15 15 15 15 15 15 15 15 15 15 15 15 16 16 0
1 16 16 16 16 16 16 16 16 16 16 16 16 16 16 0
1 16 16 16 16 16 16 16 16 16 16 16 16 16 16 0
1 16 16 16 16 16 16 16 16 16 16 16 16 16 16 0
1 16 16 16 16 16 16 16 16 16 16 16 16 16 16 0
1 16 16 16 16 16 17 17 17 17 17 17 17 17 17 0
1 17 17 17 17 17 17 17 17 17 17 17 17 17 17 0
1 17 17 17 17 17 17 17 17 17 17 17 17 17 17 0
1 17 17 17 17 17 17 17 17 17 17 17 17 17 17 0
1 17 17 17 17 17 17 17 17 17 18 18 18 18 18 0
1 18 18 18 18 18 18 18 18 18 18 18 18 18 18 0
1 18 18 18 18 18 18 18 18 18 18 18 18 18 18 0
1 18 18 18 18 18 18 18 18 18 18 18 18 18 18 0
1 19 19 19 19 19 19 19 19 19 19 19 19 19 19 0
1 19 19 19 19 19 19 19 19 19 19 19 19 19 19 0
1 19 19 19 19 19 19 19 19 19 19 19 19 19 19 0
1 19 19 19 19 19 19 19 19 19 19 19 19 20 20 0
1 20 20 20 20 20 20 20 20 20 20 20 20 20 20 0
1 20 20 20 20 20 20 20 20 20 20 20 20 20 20 0
1 20 20 20 20 20 20 20 20 21 21 21 21 21 21 0
1 21 21 21 21 21 21 21 21 21 21 21 21 21 21 0
1 21 21 21 21 21 21 21 21 21 21 21 21 21 21 0
1 21 21 21 21 21 21 21 21 21 21 21 21 21 21 0
1 21 21 21 21 21 21 21 21 21 21 21 21 21 21 0
1 22 22 22 22 22 22 22 22 22 22 22 22 22 22 0
1 22 22 22 22 22 22 22 22 22 22 22 22 22 22 0
1 22 22 22 22 22 22 22 22 23 23 23 23 23 23 0
1 23 23 23 23 23 23 23 23 23 23 23 23 23 23 0
1 23 23 23 23 23 23 23 23 23 23 23 23 23 23 0
1 23 23 23 23 23 23 23 23 23 23 23 23 23 23 0
1 23 24 24 24 24 24 24 24 24 24 24 24 24 24 0
1 24 24 24 24 24 24 24 24 24 24 24 24 24 24 0
1 24 24 24 24 24 24 24 24 24 24 24 24 24 24 0
1 24 24 25 25 25 25 25 25 25 25 25 25 25 25 0
1 25 25 25 25 25 25 25 25 25 25 25 25 25 25 0
1 25 25 25 25 25 25 25 25 25 25 25 25 25 25 0
1 25 25 25 25 26 26 26 26 26 26 26 26 26 26 0
1 26 26 26 26 26 26 26 26 26 26 26 26 26 26 0
1 26 26 26 26 26 26 26 26 26 26 26 26 26 26 0
1 26 26 26 26 26 26 26 26 26 26 26 26 26 26 0
1 27 27 27 27 27 27 27 27 27 27 27 27 27 27 0
1 27 27 27 27 27 27 27 27 27 27 27 27 27 27 0
1 27 27 27 27 27 27 27 27 27 28 28 28 28 28 0
1 28 28 28 28 28 28 28 28 28 28 28 28 28 28 0
1 28 28 28 28 28 28 28 28 28 28 28 28 28 28 0
1 28 28 28 29 29 29 29 29 29 29 29 29 29 29 0
1 29 29 29 29 29 29 29 29 29 29 29 29 29 29 0
1 29 29 29 29 29 29 29 29 29 29 29 29 29 29 0
1 29 29 29 29 29 29 30 30 30 30 30 30 30 30 0
1 30 30 30 30 30 30 30 30 30 30 30 30 30 30 0
1 30 30 30 30 30 30 30 30 30 30 30 30 30 30 0
1 30 30 30 30 30 30 30 30 30 30 30 30 30 31 0
1 31 31 31 31 31 31 31 31 31 31 31 31 31 31 0
1 31 31 31 31 31 31 31 31 31 31 31 31 31 31 0
1 31 31 31 31 31 31 31 31 31 31 31 31 31 31 0
1 31 31 31 31 32 32 32 32 32 32 32 32 32 32 0
1 32 32 32 32 32 32 32 32 32 32 32 32 32 32 0
1 32 32 32 32 32 32 32 32 32 32 32 32 32 32 0
1 33 33 33 33 33 33 33 33 33 33 33 33 33 33 0
1 33 33 33 33 33 33 33 33 33 33 33 33 33 33 0
1 33 33 33 33 33 33 33 33 33 33 33 33 33 33 0
1 33 33 33 33 33 33 34 34 34 34 34 34 34 34 0
1 34 34 34 34 34 34 34 34 34 34 34 34 34 34 0
1 34 34 34 34 34 34 34 34 34 34 34 34 34 34 0
1 35 35 35 35 35 35 35 35 35 35 35 35 35 35 0
1 35 35 35 35 35 35 35 35 35 35 35 35 35 35 0
1 35 35 35 35 35 35 35 35 36 36 36 36 36 36 0
1 36 36 36 36 36 36 36 36 36 36 36 36 36 36 0
1 36 36 36 36 36 36 36 36 36 36 36 36 36 36 0
1 36 36 36 36 36 36 36 36 36 36 36 36 36 36 0
1 36 36 36 36 36 37 37 37 37 37 37 37 37 37 0
1 37 37 37 37 37 37 37 37 37 37 37 37 37 37 0
1 37 37 37 37 37 37 37 37 37 37 37 37 37 37 0
1 37 37 37 37 37 37 37 37 37 38 38 38 38 38 0
1 38 38 38 38 38 38 38 38 38 38 38 38 38 38 0
1 38 38 38 38 38 38 38 38 38 38 38 38 38 38 0
1 38 38 38 38 38 38 38 38 38 38 38 38 38 38 0
1 38 38 39 39 39 39 39 39 39 39 39 39 39 39 0
1 39 39 39 39 39 39 39 39 39 39 39 39 39 39 0
1 39 39 39 39 39 39 39 39 39 39 39 39 39 39 0
1 39 39 39 39 39 39 39 39 39 40 40 40 40 40 0
1 40 40 40 40 40 40 40 40 40 40 40 40 40 40 0
1 40 40 40 40 40 40 40 40 40 40 40 40 40 40 0
1 40 40 40 40 40 40 40 40 40 40 40 41 41 41 0
1 41 41 41 41 41 41 41 41 41 41 41 41 41 41 0
1 41 41 41 41 41 41 41 41 41 41 41 41 41 41 0
1 41 41 41 41 41 41 41 41 41 41 41 41 41 41 0
1 42 42 42 42 42 42 42 42 42 42 42 42 42 42 0
1 42 42 42 42 42 42 42 42 42 42 42 42 42 42 0
1 42 42 42 42 42 42 42 42 42 42 42 42 42 42 0
1 42 42 43 43 43 43 43 43 43 43 43 43 43 43 0
1 43 43 43 43 43 43 43 43 43 43 43 43 43 43 0
1 43 43 43 43 43 43 43 43 43 43 43 43 43 43 0
1 43 43 43 43 43 43 43 43 43 43 43 43 43 43 0
1 44 44 44 44 44 44 44 44 44 44 44 44 44 44 0
1 44 44 44 44 44 44 44 44 44 44 44 44 44 44 0
1 44 44 44 44 44 44 44 44 44 44 44 44 44 44 0
1 44 44 44 44 44 44 44 45 45 45 45 45 45 45 0
1 45 45 45 45 45 45 45 45 45 45 45 45 45 45 0
1 45 45 45 45 45 45 45 45 45 45 45 45 45 45 0
1 45 45 45 45 45 45 46 46 46 46 46 46 46 46 0
1 46 46 46 46 46 46 46 46 46 46 46 46 46 46 0
1 46 46 46 46 46 46 46 46 46 46 46 46 46 46 0
1 46 46 46 46 46 46 46 46 46 47 47 47 47 47 0
1 47 47 47 47 47 47 47 47 47 47 47 47 47 47 0
1 47 47 47 47 47 47 47 47 47 47 47 47 47 47 0
1 47 47 47 47 47 47 47 47 47 47 47 47 47 47 0
1 47 47 47 48 48 48 48 48 48 48 48 48 48 48 0
1 48 48 48 48 48 48 48 48 48 48 48 48 48 48 0
1 48 48 48 48 48 48 48 48 48 48 48 48 49 49 0
1 49 49 49 49 49 49 49 49 49 49 49 49 49 49 0
1 49 49 49 49 49 49 49 49 49 49 49 49 49 49 0
1 49 49 49 49 49 49 49 49 49 49 49 49 49 49 0
1 49 49 49 49 49 49 49 49 49 49 49 50 50 50 0
1 50 50 50 50 50 50 50 50 50 50 50 50 50 50 0
1 50 50 50 50 50 50 50 50 50 50 50 50 50 50 0
1 50 50 50 50 50 50 50 51 51 51 51 51 51 51 0
1 51 51 51 51 51 51 51 51 51 51 51 51 51 51 0
1 51 51 51 51 51 51 51 51 51 51 51 51 51 51 0
1 51 51 51 51 51 51 51 51 51 51 51 51 51 51 0
1 51 51 51 51 51 51 51 51 51 52 52 52 52 52 0
1 52 52 52 52 52 52 52 52 52 52 52 52 52 52 0
1 52 52 52 52 52 52 52 52 52 52 52 52 52 52 0
1 52 52 52 52 52 52 52 52 52 52 52 52 52 53 0
1 53 53 53 53 53 53 53 53 53 53 53 53 53 53 0
1 53 53 53 53 53 53 53 53 53 53 53 53 53 53 0
1 53 53 53 53 54 54 54 54 54 54 54 54 54 54 0
1 54 54 54 54 54 54 54 54 54 54 54 54 54 54 0
1 54 54 54 54 54 54 54 54 54 54 54 54 54 54 0
1 54 54 54 54 54 54 54 54 54 54 54 54 54 54 0
1 54 54 54 54 54 54 54 54 54 54 54 54 54 55 0
1 55 55 55 55 55 55 55 55 55 55 55 55 55 55 0
1 55 55 55 55 55 55 55 55 55 55 55 55 55 55 0
1 55 55 55 55 55 55 55 55 55 55 55 55 55 56 0
1 56 56 56 56 56 56 56 56 56 56 56 56 56 56 0
1 56 56 56 56 56 56 56 56 56 56 56 56 56 56 0
1 56 56 56 56 56 56 56 56 56 56 56 56 56 57 0
1 57 57 57 57 57 57 57 57 57 57 57 57 57 57 0
1 57 57 57 57 57 57 57 57 57 57 57 57 57 57 0
1 57 57 57 57 57 57 57 58 58 58 58 58 58 58 0
1 58 58 58 58 58 58 58 58 58 58 58 58 58 58 0
1 58 58 58 58 58 58 58 58 58 58 58 58 58 58 0
1 58 58 58 58 58 58 59 59 59 59 59 59 59 59 0
1 59 59 59 59 59 59 59 59 59 59 59 59 59 59 0
1 59 59 59 59 59 59 59 59 59 59 59 59 59 59 0
1 59 59 59 59 59 59 59 59 59 59 59 60 60 60 0
1 60 60 60 60 60 60 60 60 60 60 60 60 60 60 0
1 60 60 60 60 60 60 60 60 60 60 60 60 60 60 0
1 60 60 60 60 60 61 61 61 61 61 61 61 61 61 0
1 61 61 61 61 61 61 61 61 61 61 61 61 61 61 0
1 61 61 61 61 61 61 61 61 61 61 61 61 61 61 0
1 61 61 61 61 61 61 61 61 61 61 62 62 62 62 0
1 62 62 62 62 62 62 62 62 62 62 62 62 62 62 0
1 62 62 62 62 62 62 62 62 62 62 62 62 62 62 0
1 62 62 62 62 62 62 62 62 62 62 62 62 62 62 0
1 62 62 62 62 62 62 62 62 62 63 63 63 63 63 0
1 63 63 63 63 63 63 63 63 63 63 63 63 63 63 0
1 63 63 63 63 63 63 63 63 63 63 63 63 63 63 0
1 63 63 63 63 63 63 63 63 64 64 64 64 64 64 0
1 64 64 64 64 64 64 64 64 64 64 64 64 64 64 0
1 64 64 64 64 64 64 64 64 64 64 64 64 64 64 0
1 64 64 64 65 65 65 65 65 65 65 65 65 65 65 0
1 65 65 65 65 65 65 65 65 65 65 65 65 65 65 0
1 65 65 65 65 65 65 65 65 65 65 65 65 65 65 0
1 65 66 66 66 66 66 66 66 66 66 66 66 66 66 0
1 66 66 66 66 66 66 66 66 66 66 66 66 66 66 0
1 66 66 66 66 66 66 66 66 66 66 66 67 67 67 0
1 67 67 67 67 67 67 67 67 67 67 67 67 67 67 0
1 67 67 67 67 67 67 67 67 67 67 67 67 67 67 0
1 67 67 67 67 67 67 67 67 67 67 67 67 67 67 0
1 67 67 67 67 67 67 67 67 68 68 68 68 68 68 0
1 68 68 68 68 68 68 68 68 68 68 68 68 68 68 0
1 68 68 68 68 68 68 68 68 68 68 68 68 68 68 0
1 68 68 68 68 68 68 68 68 68 68 68 68 68 68 0
1 68 68 68 69 69 69 69 69 69 69 69 69 69 69 0
1 69 69 69 69 69 69 69 69 69 69 69 69 69 69 0
1 69 69 69 69 69 69 69 69 69 69 69 69 69 69 0
1 69 69 70 70 70 70 70 70 70 70 70 70 70 70 0
1 70 70 70 70 70 70 70 70 70 70 70 70 70 70 0
1 70 70 70 70 70 70 70 70 70 70 70 70 70 70 0
1 70 70 70 70 71 71 71 71 71 71 71 71 71 71 0
1 71 71 71 71 71 71 71 71 71 71 71 71 71 71 0
1 71 71 71 71 71 71 71 71 71 71 71 71 71 71 0
1 71 71 71 71 71 71 71 71 71 71 71 71 71 71 0
1 71 71 71 71 71 71 71 71 72 72 72 72 72 72 0
1 72 72 72 72 72 72 72 72 72 72 72 72 72 72 0
1 72 72 72 72 72 72 72 72 72 72 72 72 72 72 0
1 72 72 72 72 72 72 72 72 72 72 72 72 72 72 0
1 73 73 73 73 73 73 73 73 73 73 73 73 73 73 0
1 73 73 73 73 73 73 73 73 73 73 73 73 73 73 0
1 73 73 73 73 73 73 73 73 73 73 73 73 73 73 0
1 73 73 73 73 73 73 74 74 74 74 74 74 74 74 0
1 74 74 74 74 74 74 74 74 74 74 74 74 74 74 0
1 74 74 74 74 74 74 74 74 74 74 74 74 74 74 0
1 74 74 74 74 74 74 74 74 74 75 75 75 75 75 0
1 75 75 75 75 75 75 75 75 75 75 75 75 75 75 0
1 75 75 75 75 75 75 75 75 75 75 75 75 75 75 0
1 75 75 75 75 75 75 75 75 75 75 75 75 75 75 0
1 75 75 75 75 75 75 75 75 75 76 76 76 76 76 0
1 76 76 76 76 76 76 76 76 76 76 76 76 76 76 0
1 76 76 76 76 76 76 76 76 76 76 76 76 76 76 0
1 76 76 76 76 76 76 76 76 76 76 76 76 76 76 0
1 77 77 77 77 77 77 77 77 77 77 77 77 77 77 0
1 77 77 77 77 77 77 77 77 77 77 77 77 77 77 0
1 77 77 77 77 77 77 77 77 77 77 77 77 77 77 0
1 77 77 77 77 77 77 78 78 78 78 78 78 78 78 0
1 78 78 78 78 78 78 78 78 78 78 78 78 78 78 0
1 78 78 78 78 78 78 78 78 78 78 78 78 78 78 0
1 78 78 78 78 78 78 78 78 78 78 78 78 78 78 0
1 78 78 78 78 78 78 78 78 78 78 79 79 79 79 0
1 79 79 79 79 79 79 79 79 79 79 79 79 79 79 0
1 79 79 79 79 79 79 79 79 79 79 79 79 79 79 0
1 79 79 79 79 79 79 79 79 79 79 79 79 79 79 0
1 79 79 79 79 79 79 79 80 80 80 80 80 80 80 0
1 80 80 80 80 80 80 80 80 80 80 80 80 80 80 0
1 80 80 80 80 80 80 80 80 80 80 80 80 80 80 0
1 80 80 80 80 80 80 80 80 80 80 80 80 80 80 0
1 81 81 81 81 81 81 81 81 81 81 81 81 81 81 0
1 81 81 81 81 81 81 81 81 81 81 81 81 81 81 0
1 81 81 81 81 81 81 81 81 81 81 81 81 81 81 0
1 82 82 82 82 82 82 82 82 82 82 82 82 82 82 0
1 82 82 82 82 82 82 82 82 82 82 82 82 82 82 0
1 82 82 82 82 82 82 82 82 82 82 83 83 83 83 0
1 83 83 83 83 83 83 83 83 83 83 83 83 83 83 0
1 83 83 83 83 83 83 83 83 83 83 83 83 83 83 0
1 83 83 83 83 83 83 83 83 83 83 83 83 83 83 0
1 83 84 84 84 84 84 84 84 84 84 84 84 84 84 0
1 84 84 84 84 84 84 84 84 84 84 84 84 84 84 0
1 84 84 84 84 84 84 84 84 84 84 84 84 84 84 0
1 84 84 84 84 84 84 85 85 85 85 85 85 85 85 0
1 85 85 85 85 85 85 85 85 85 85 85 85 85 85 0
1 85 85 85 85 85 85 85 85 85 85 85 85 85 85 0
1 85 85 85 85 85 85 85 85 85 85 85 85 85 85 0
1 85 85 85 85 85 86 86 86 86 86 86 86 86 86 0
1 86 86 86 86 86 86 86 86 86 86 86 86 86 86 0
1 86 86 86 86 86 86 86 86 86 86 86 86 86 86 0
1 86 86 86 86 86 86 86 86 86 86 86 87 87 87 0
1 87 87 87 87 87 87 87 87 87 87 87 87 87 87 0
1 87 87 87 87 87 87 87 87 87 87 87 87 87 87 0
1 87 87 87 87 87 87 87 87 87 87 87 87 87 87 0
1 87 87 87 87 87 87 87 87 88 88 88 88 88 88 0
1 88 88 88 88 88 88 88 88 88 88 88 88 88 88 0
1 88 88 88 88 88 88 88 88 88 88 88 88 88 88 0
1 88 88 88 88 88 88 88 88 88 88 88 88 88 88 0
1 88 88 89 89 89 89 89 89 89 89 89 89 89 89 0
1 89 89 89 89 89 89 89 89 89 89 89 89 89 89 0
1 89 89 89 89 89 89 89 89 89 89 89 89 89 89 0
1 89 89 89 89 89 89 89 89 90 90 90 90 90 90 0
1 90 90 90 90 90 90 90 90 90 90 90 90 90 90 0
1 90 90 90 90 90 90 90 90 90 90 90 90 90 90 0
1 90 90 90 90 90 90 90 90 91 91 91 91 91 91 0
1 91 91 91 91 91 91 91 91 91 91 91 91 91 91 0
1 91 91 91 91 91 91 91 91 91 91 91 91 91 91 0
1 91 91 91 91 91 91 91 91 91 91 91 91 91 91 0
1 91 91 91 91 91 91 91 91 91 91 91 91 91 91 0
1 91 91 91 92 92 92 92 92 92 92 92 92 92 92 0
1 92 92 92 92 92 92 92 92 92 92 92 92 92 92 0
1 92 92 92 92 92 92 92 92 92 92 92 92 92 92 0
1 92 92 92 93 93 93 93 93 93 93 93 93 93 93 0
1 93 93 93 93 93 93 93 93 93 93 93 93 93 93 0
1 93 93 93 93 93 93 93 93 93 93 93 93 93 93 0
1 93 93 93 93 93 93 93 93 93 93 93 93 93 93 0
1 94 94 94 94 94 94 94 94 94 94 94 94 94 94 0
1 94 94 94 94 94 94 94 94 94 94 94 94 94 94 0
1 94 94 94 94 94 94 94 94 94 94 94 94 94 94 0
1 94 94 94 94 94 94 94 94 94 94 94 94 94 94 0
1 95 95 95 95 95 95 95 95 95 95 95 95 95 95 0
1 95 95 95 95 95 95 95 95 95 95 95 95 95 95 0
1 95 95 95 95 95 95 95 95 95 95 95 95 96 96 0
1 96 96 96 96 96 96 96 96 96 96 96 96 96 96 0
1 96 96 96 96 96 96 96 96 96 96 96 96 96 96 0
1 96 96 96 96 96 96 96 96 96 96 96 96 96 96 0
1 96 96 96 96 97 97 97 97 97 97 97 97 97 97 0
1 97 97 97 97 97 97 97 97 97 97 97 97 97 97 0
1 97 97 97 97 97 97 97 97 97 97 97 97 97 97 0
1 97 97 97 97 97 97 97 97 97 97 97 97 97 97 0
1 97 97 98 98 98 98 98 98 98 98 98 98 98 98 0
1 98 98 98 98 98 98 98 98 98 98 98 98 98 98 0
1 98 98 98 98 98 98 98 98 98 98 98 98 98 98 0
1 98 98 98 98 99 99 99 99 99 99 99 99 99 99 0
1 99 99 99 99 99 99 99 99 99 99 99 99 99 99 0
1 99 99 99 99 99 99 99 99 99 99 99 99 99 99 0
1 99 99 99 99 99 100 100 100 100 100 100 100 100 100 0
1 100 100 100 100 100 100 100 100 100 100 100 100 100 100 0
1 100 100 100 100 100 100 100 100 100 100 100 100 100 100 0
1 100 100 100 100 0
1  0
1 7 8 10 22 23 28 34 41 44 54 58 60 73 79 0
1 89 95 102 104 107 126 131 135 136 137 144 147 151 152 0
1 166 177 184 193 203 212 224 227 231 238 240 242 244 256 0
1 260 266 267 268 275 281 282 293 294 297 318 326 327 331 0
1 341 345 358 363 382 383 385 397 418 420 428 431 436 439 0
1 442 446 449 457 462 465 471 473 484 486 487 498 499 507 0
1 515 521 526 536 540 544 546 550 555 556 557 570 579 589 0
1 594 596 600 601 605 610 611 620 623 625 626 627 637 638 0
1 641 643 645 654 655 657 658 661 671 673 674 686 687 691 0
1 702 708 714 719 720 721 722 727 728 730 734 738 740 744 0
1 749 755 759 761 763 765 767 776 777 781 787 788 793 795 0
1 809 812 814 815 829 835 860 862 866 867 869 877 880 882 0
1 910 916 917 922 924 925 929 933 934 945 956 966 972 980 0
1 988 992 1000 1004 1005 1023 1024 1031 1035 1046 1048 1049 1051 1052 0
1 1068 1072 1092 1094 1096 1097 1100 1101 1107 1108 1114 1118 1120 1122 0
1 1137 1140 1145 1148 1161 1179 1199 1201 1216 1217 1218 1225 1229 1231 0
1 1240 1254 1255 1258 1270 1273 1281 1284 1292 1293 1298 1305 1309 1313 0
1 1324 1327 1330 1333 1334 1336 1339 1344 1354 1361 1367 1368 1374 1375 0
1 1384 1387 1400 1402 1405 1434 1435 1448 1452 1454 1457 1459 1464 1478 0
1 1484 1490 1492 1493 1494 1496 1499 1501 1504 1506 1515 1520 1535 1549 0
1 1553 1562 1563 1570 1571 1572 1581 1583 1585 1586 1590 1592 1594 1595 0
1 1608 1615 1616 1618 1620 1624 1625 1629 1630 1642 1659 1664 1665 1667 0
1 1672 1680 1681 1682 1683 1685 1689 1692 1694 1699 1702 1705 1706 1707 0
1 1713 1717 1720 1724 1739 1740 1741 1756 1758 1759 1762 1775 1782 1785 0
1 1788 1792 1796 1797 1804 1817 1823 1834 1840 1845 1849 1857 1864 1873 0
1 1894 1902 1905 1908 1912 1926 1934 1936 1939 1941 1944 1948 1953 1954 0
1 1964 1969 1971 1974 1983 1987 1988 1990 1995 1997 2002 2004 2009 2022 0
1 2036 2037 2045 2058 2064 2065 2078 2079 2090 2093 2094 2101 2106 2107 0
1 2121 2131 2135 2137 2144 2164 2176 2177 2182 2185 2193 2202 2207 2212 0
1 2218 2219 2220 2224 2229 2243 2245 2256 2260 2261 2271 2275 2279 2283 0
1 2289 2299 2313 2314 2316 2320 2328 2332 2334 2335 2338 2340 2343 2344 0
1 2365 2372 2379 2383 2388 2392 2394 2403 2411 2419 2421 2432 2438 2439 0
1 2446 2451 2460 2461 2463 2471 2476 2485 2490 2491 2493 2497 2503 2504 0
1 2508 2510 2516 2517 2524 2527 2532 2533 2540 2543 2545 2555 2562 2565 0
1 2570 2571 2573 2583 2584 2589 2598 2610 2617 2622 2629 2636 2637 2640 0
1 2647 2649 2652 2657 2658 2661 2674 2685 2698 2699 2702 2705 2707 2710 0
1 2720 2722 2727 2735 2741 2746 2753 2758 2761 2765 2779 2794 2797 2805 0
1 2825 2827 2846 2849 2860 2864 2866 2868 2869 2877 2881 2889 2892 2894 0
1 2899 2910 2914 2920 2924 2926 2928 2932 2941 2943 2951 2957 2959 2960 0
1 2966 2973 2982 2983 2987 2989 2990 3004 3005 3010 3018 3020 3024 3030 0
1 3037 3045 3046 3056 3059 3063 3064 3066 3068 3070 3079 3080 3083 3088 0
1 3103 3107 3113 3117 3122 3124 3129 3135 3166 3172 3177 3188 3196 3197 0
1 3199 3204 3206 3208 3210 3218 3220 3226 3236 3239 3247 3256 3257 3274 0
1 3283 3284 3289 3297 3300 3305 3316 3319 3320 3328 3330 3346 3352 3353 0
1 3357 3361 3362 3370 3373 3379 3380 3384 3385 3389 3394 3397 3398 3408 0
1 3431 3439 3442 3449 3461 3463 3468 3471 3475 3487 3489 3492 3493 3496 0
1 3502 3514 3516 3519 3538 3543 3547 3549 3552 3553 3555 3557 3560 3566 0
1 3568 3569 3590 3593 3599 3602 3605 3610 3614 3621 3626 3629 3634 3635 0
1 3656 3660 3663 3664 3667 3669 3670 3674 3678 3688 3697 3702 3703 3705 0
1 3709 3716 3723 3724 3726 3728 3732 3741 3745 3753 3755 3756 3761 3774 0
1 3783 3791 3792 3797 3802 3803 3806 3811 3814 3815 3816 3821 3824 3828 0
1 3842 3847 3848 3857 3864 3881 3883 3887 3894 3897 3915 3920 3928 3929 0
1 3937 3940 3955 3956 3959 3965 3974 3977 3978 3985 3990 3994 4000 4003 0
1 4005 4014 4019 4023 4028 4033 4036 4040 4045 4050 4053 4057 4064 4070 0
1 4081 4082 4083 4084 4088 4090 4096 4101 4102 4113 4120 4121 4129 4135 0
1 4146 4148 4151 4152 4153 4158 4169 4170 4172 4173 4178 4199 4205 4215 0
1 4228 4240 4241 4243 4248 4252 4255 4260 4265 4270 4278 4284 4286 4290 0
1 4296 4308 4309 4315 4319 4326 4339 4345 4366 4375 4384 4388 4395 4404 0
1 4411 4415 4417 4421 4422 4441 4453 4457 4463 4468 4472 4481 4483 4492 0
1 4497 4501 4502 4507 4523 4524 4527 4532 4535 4539 4544 4548 4550 4558 0
1 4572 4574 4595 4607 4609 4628 4629 4630 4632 4638 4653 4656 4668 4695 0
1 4707 4711 4713 4722 4723 4724 4728 4731 4737 4738 4742 4743 4750 4753 0
1 4767 4770 4775 4781 4784 4785 4796 4807 4811 4818 4824 4826 4827 4842 0
1 4865 4869 4871 4873 4889 4891 4900 4903 4905 4906 4912 4914 4919 4920 0
1 4923 4925 4927 4928 4930 4931 4935 4940 4949 4953 4956 4959 4976 4978 0
1 4982 4986 4995 0
1  0
1 5 12 14 22 29 33 43 48 49 56 66 70 72 75 0
1 80 86 87 93 94 95 98 101 102 108 113 116 120 125 0
1 131 137 138 140 155 167 171 172 179 183 185 189 190 196 0
1 201 202 209 215 219 226 230 233 237 247 248 250 260 274 0
1 292 297 299 303 304 306 307 309 310 315 323 332 333 344 0
1 353 354 355 365 369 379 381 387 395 397 404 410 412 416 0
1 429 438 445 446 450 453 462 469 481 486 489 490 505 506 0
1 518 523 528 535 537 542 543 545 546 550 553 555 556 566 0
1 578 580 581 587 593 595 597 599 600 611 627 632 641 642 0
1 653 654 656 668 675 681 689 691 696 707 713 717 720 721 0
1 736 740 742 747 748 752 755 756 769 776 785 787 796 798 0
1 814 818 821 830 835 840 842 846 849 859 861 866 885 893 0
1 899 908 922 928 929 943 951 956 962 963 965 968 974 976 0
1 983 989 996 1001 1007 1012 1019 1020 1025 1030 1035 1039 1043 1049 0
1 1061 1062 1064 1066 1068 1069 1072 1081 1088 1093 1094 1098 1105 1106 0
1 1121 1125 1129 1132 1133 1134 1140 1142 1146 1148 1170 1174 1177 1182 0
1 1184 1185 1199 1200 1202 1203 1209 1210 1225 1240 1249 1252 1261 1262 0
1 1275 1283 1284 1300 1304 1314 1316 1319 1322 1324 1339 1340 1347 1356 0
1 1364 1367 1368 1370 1376 1379 1381 1384 1385 1391 1403 1406 1411 1425 0
1 1432 1433 1437 1442 1452 1453 1461 1465 1473 1480 1489 1490 1498 1500 0
1 1502 1505 1507 1515 1516 1524 1527 1529 1530 1536 1557 1558 1561 1565 0
1 1576 1583 1585 1594 1596 1598 1601 1602 1621 1624 1633 1634 1640 1641 0
1 1648 1649 1650 1663 1669 1682 1683 1685 1691 1696 1697 1704 1706 1719 0
1 1722 1725 1732 1738 1742 1746 1748 1752 1753 1759 1762 1772 1774 1782 0
1 1792 1802 1812 1817 1822 1824 1826 1827 1829 1841 1842 1844 1850 1852 0
1 1860 1861 1867 1870 1872 1881 1882 1886 1887 1891 1893 1894 1896 1897 0
1 1910 1918 1921 1936 1939 1946 1948 1950 1951 1954 1960 1965 1969 1974 0
1 1982 1985 1990 2001 2011 2014 2017 2018 2019 2022 2025 2035 2039 2047 0
1 2057 2066 2071 2081 2082 2084 2085 2087 2095 2096 2097 2098 2100 2104 0
1 2124 2139 2141 2144 2145 2148 2149 2157 2159 2162 2165 2174 2186 2188 0
1 2190 2191 2192 2194 2203 2213 2214 2226 2249 2251 2252 2257 2263 2266 0
1 2271 2276 2277 2279 2280 2284 2286 2289 2301 2308 2310 2316 2334 2337 0
1 2356 2372 2373 2376 2378 2380 2401 2403 2408 2415 2430 2435 2438 2447 0
1 2452 2472 2486 2488 2499 2504 2508 2515 2518 2524 2529 2533 2534 2538 0
1 2554 2555 2560 2570 2571 2580 2589 2604 2606 2611 2612 2613 2615 2621 0
1 2639 2641 2643 2644 2646 2648 2651 2661 2677 2689 2690 2692 2695 2701 0
1 2711 2712 2715 2722 2726 2729 2738 2743 2744 2747 2748 2757 2763 2766 0
1 2780 2783 2786 2788 2789 2792 2803 2808 2841 2843 2848 2857 2858 2859 0
1 2862 2863 2865 2893 2896 2897 2909 2912 2914 2915 2917 2921 2927 2928 0
1 2937 2944 2945 2948 2954 2956 2958 2959 2966 2969 2971 2973 2981 3000 0
1 3007 3013 3026 3029 3031 3033 3035 3039 3045 3048 3060 3062 3065 3070 0
1 3086 3087 3088 3100 3101 3107 3115 3117 3125 3133 3137 3145 3149 3155 0
1 3163 3173 3175 3178 3180 3181 3184 3187 3194 3197 3198 3201 3202 3204 0
1 3207 3209 3215 3217 3224 3225 3230 3243 3254 3256 3259 3261 3266 3274 0
1 3283 3288 3289 3291 3293 3294 3300 3305 3307 3314 3321 3322 3323 3327 0
1 3335 3339 3343 3344 3351 3363 3367 3373 3374 3382 3384 3398 3400 3403 0
1 3406 3415 3416 3418 3421 3422 3423 3434 3439 3444 3445 3448 3456 3457 0
1 3471 3473 3474 3476 3477 3478 3483 3484 3495 3496 3499 3512 3516 3529 0
1 3534 3541 3545 3554 3559 3563 3568 3570 3571 3584 3604 3607 3611 3612 0
1 3614 3627 3639 3640 3641 3642 3644 3646 3652 3653 3654 3658 3668 3678 0
1 3687 3694 3698 3699 3702 3705 3709 3712 3718 3721 3722 3724 3725 3726 0
1 3733 3751 3754 3755 3756 3758 3759 3760 3761 3764 3766 3769 3770 3776 0
1 3786 3787 3788 3792 3793 3798 3799 3806 3818 3820 3822 3827 3841 3843 0
1 3857 3861 3863 3867 3873 3875 3880 3881 3884 3885 3886 3894 3899 3903 0
1 3917 3918 3923 3925 3926 3949 3966 3976 3977 3984 3985 4006 4021 4030 0
1 4045 4050 4051 4052 4055 4074 4079 4089 4098 4108 4115 4116 4117 4121 0
1 4131 4133 4149 4155 4174 4179 4181 4184 4188 4189 4196 4199 4202 4204 0
1 4207 4208 4222 4229 4233 4234 4235 4236 4237 4242 4243 4245 4246 4248 0
1 4253 4257 4264 4265 4266 4276 4278 4283 4292 4294 4302 4308 4315 4318 0
1 4322 4323 4327 4331 4336 4342 4346 4348 4362 4363 4372 4376 4378 4384 0
1 4391 4394 4404 4407 4420 4426 4436 4446 4451 4470 4471 4479 4482 4484 0
1 4499 4501 4503 4513 4516 4525 4527 4532 4533 4542 4543 4554 4560 4562 0
1 4580 4594 4599 4605 4608 4609 4610 4616 4620 4621 4622 4623 4624 4627 0
1 4652 4654 4659 4667 4668 4676 4683 4688 4690 4693 4705 4706 4713 4719 0
1 4726 4748 4749 4750 4759 4760 4773 4782 4799 4811 4813 4816 4817 4820 0
1 4834 4836 4838 4839 4845 4848 4856 4863 4867 4872 4876 4878 4887 4891 0
1 4896 4898 4912 4930 4931 4933 4938 4945 4946 4947 4969 4977 4979 4991 0
1 4997 4999 0
1  0
1 9 13 14 22 27 30 33 40 47 50 60 61 66 72 0
1 91 94 104 107 115 120 121 127 130 132 136 149 157 161 0
1 188 195 197 201 206 207 209 210 211 214 224 225 228 236 0
1 245 247 249 250 251 254 259 263 267 270 288 292 293 294 0
1 299 302 307 313 315 316 320 324 325 330 332 343 345 350 0
1 354 377 388 389 397 399 401 402 406 418 429 444 446 448 0
1 455 457 459 460 465 467 469 475 476 487 494 498 503 506 0
1 514 518 519 520 522 530 536 554 558 564 565 572 581 582 0
1 584 586 588 599 605 610 615 622 625 629 632 640 642 643 0
1 655 668 669 673 675 683 692 696 699 701 705 712 713 724 0
1 728 731 736 738 745 748 750 792 800 803 805 806 808 809 0
1 815 817 821 831 834 835 840 844 846 847 848 852 854 861 0
1 869 870 871 879 882 885 886 887 897 917 920 921 923 930 0
1 948 950 952 957 971 974 975 982 988 998 1004 1006 1023 1034 0
1 1038 1042 1045 1058 1067 1075 1076 1083 1088 1089 1090 1095 1097 1103 0
1 1120 1125 1137 1139 1140 1142 1172 1183 1186 1187 1189 1191 1195 1202 0
1 1223 1224 1229 1238 1248 1252 1253 1255 1271 1272 1273 1275 1276 1279 0
1 1289 1297 1301 1306 1308 1309 1310 1324 1327 1348 1349 1351 1355 1360 0
1 1370 1378 1389 1397 1399 1403 1412 1425 1427 1433 1445 1450 1454 1457 0
1 1462 1463 1481 1486 1487 1489 1493 1504 1510 1511 1519 1530 1531 1541 0
1 1551 1554 1556 1566 1567 1575 1578 1579 1580 1583 1584 1597 1598 1606 0
1 1617 1624 1632 1633 1637 1639 1647 1648 1659 1672 1679 1681 1693 1711 0
1 1722 1728 1737 1740 1742 1743 1746 1751 1752 1754 1772 1780 1785 1795 0
1 1807 1808 1814 1815 1816 1817 1825 1827 1828 1829 1833 1835 1836 1842 0
1 1854 1859 1860 1863 1865 1868 1870 1880 1886 1900 1901 1902 1905 1906 0
1 1909 1917 1920 1921 1927 1931 1932 1940 1943 1946 1955 1957 1959 1967 0
1 1974 1975 1977 1978 1981 1984 1986 1995 1998 2000 2002 2006 2009 2011 0
1 2017 2023 2026 2037 2038 2041 2046 2048 2052 2057 2069 2076 2082 2088 0
1 2102 2103 2113 2116 2130 2131 2136 2137 2141 2143 2144 2146 2147 2154 0
1 2158 2162 2164 2173 2177 2184 2185 2200 2209 2211 2225 2227 2230 2232 0
